
Starting CP-SAT solver v9.15.6755
Parameters: random_seed: 2026072942 max_time_in_seconds: 8420.6473362509987 log_search_progress: true cp_model_presolve: true linearization_level: 2 num_search_workers: 4 cp_model_probing_level: 2 symmetry_level: 2

Initial satisfaction model '': (model_fingerprint: 0xb1bdc9fd5d8daf30)
#Variables: 724 (608 primary variables)
  - 724 Booleans in [0,1]
#kBoolAnd: 110 (#enforced: 110) (#literals: 330)
#kBoolOr: 110 (#enforced: 110) (#literals: 220)
#kExactlyOne: 87 (#literals: 261)
#kLinear1: 32 (#enforced: 6)
#kLinear2: 336 (#enforced: 336) (#complex_domain: 110)
#kLinear3: 1'600 (#enforced: 6)
#kLinearN: 1'132 (#enforced: 243) (#terms: 9'111)

Starting presolve at 0.00s
  6.61e-04s  0.00e+00d  [DetectDominanceRelations] 
  8.83e-03s  0.00e+00d  [PresolveToFixPoint] #num_loops=3 #num_dual_strengthening=1 
  3.42e-05s  0.00e+00d  [ExtractEncodingFromLinear] #potential_supersets=87 
  3.26e-04s  0.00e+00d  [DetectDuplicateColumns] 
  9.83e-05s  0.00e+00d  [DetectDuplicateConstraints] #duplicates=5 
[Symmetry] Graph for symmetry has 4'872 nodes and 15'736 arcs.
[Symmetry] Symmetry computation done. time: 0.00125698 dtime: 0.0018124
[SAT presolve] num removable Booleans: 220 / 628
[SAT presolve] num trivial clauses: 0
[SAT presolve] [0s] clauses:2'742 literals:7'450 vars:507 one_side_vars:67 simple_definition:1 singleton_clauses:0
[SAT presolve] [0.000224129s] clauses:2'741 literals:7'443 vars:507 one_side_vars:67 simple_definition:1 singleton_clauses:0
[SAT presolve] [0.000723731s] clauses:2'262 literals:6'662 vars:379 one_side_vars:74 simple_definition:65 singleton_clauses:0
  1.24e-04s  0.00e+00d  [DetectDuplicateConstraintsWithDifferentEnforcements] #without_enforcements=1 
  5.59e-03s  2.39e-03d  [Probe] #probed=1'306 #fixed_bools=12 #equiv=8 #new_binary_clauses=1'288 
  4.90e-04s  3.25e-04d  [MaxClique] Merged 597 constraints with 1'332 literals into 518 constraints with 1'201 literals
  8.38e-04s  0.00e+00d  [DetectDominanceRelations] 
  3.13e-03s  0.00e+00d  [PresolveToFixPoint] #num_loops=1 #num_dual_strengthening=1 
  1.24e-03s  0.00e+00d  [ProcessAtMostOneAndLinear] #num_changes=1 
  1.02e-04s  0.00e+00d  [DetectDuplicateConstraints] #duplicates=6 
  1.02e-04s  0.00e+00d  [DetectDuplicateConstraintsWithDifferentEnforcements] 
  2.70e-03s  9.29e-05d  [DetectDominatedLinearConstraints] #relevant_constraints=828 #num_inclusions=470 #num_redundant=7 
  1.18e-04s  0.00e+00d  [DetectDifferentVariables] 
  7.29e-04s  8.18e-05d  [ProcessSetPPC] #relevant_constraints=3'003 #num_inclusions=77 
  2.63e-04s  3.38e-05d  [TransformClausesToExactlyOne] #num_amos=520 #num_clauses=1'672 #num_checked=1'672 
  5.24e-05s  0.00e+00d  [DetectEncodedComplexDomains] 
  3.07e-05s  0.00e+00d  [FindAlmostIdenticalLinearConstraints] 
  8.96e-04s  1.41e-03d  [FindBigAtMostOneAndLinearOverlap] 
  1.19e-03s  9.44e-04d  [FindBigVerticalLinearOverlap] #blocks=5 #saved_nz=206 
  3.32e-04s  5.64e-04d  [FindBigHorizontalLinearOverlap] #linears=461 
  3.11e-04s  2.72e-05d  [MergeClauses] #num_collisions=26 #num_merges=26 #num_saved_literals=130 
  8.38e-04s  0.00e+00d  [DetectDominanceRelations] 
  3.30e-03s  0.00e+00d  [PresolveToFixPoint] #num_loops=2 #num_dual_strengthening=1 
  8.24e-04s  0.00e+00d  [DetectDominanceRelations] 
  3.02e-03s  0.00e+00d  [PresolveToFixPoint] #num_loops=1 #num_dual_strengthening=1 
  1.46e-04s  0.00e+00d  [DetectDuplicateColumns] 
  8.92e-05s  0.00e+00d  [DetectDuplicateConstraints] 
[Symmetry] Graph for symmetry has 4'415 nodes and 13'741 arcs.
[Symmetry] Symmetry computation done. time: 0.000959171 dtime: 0.00135339
[SAT presolve] num removable Booleans: 91 / 494
[SAT presolve] num trivial clauses: 0
[SAT presolve] [0s] clauses:2'200 literals:6'531 vars:470 one_side_vars:150 simple_definition:88 singleton_clauses:0
[SAT presolve] [0.000228466s] clauses:2'195 literals:6'326 vars:470 one_side_vars:193 simple_definition:77 singleton_clauses:0
[SAT presolve] [0.000312934s] clauses:2'185 literals:6'317 vars:465 one_side_vars:196 simple_definition:62 singleton_clauses:0
  1.49e-04s  0.00e+00d  [DetectDuplicateConstraintsWithDifferentEnforcements] #without_enforcements=1 
  5.94e-03s  2.20e-03d  [Probe] #probed=1'324 #new_binary_clauses=876 
  4.92e-04s  4.29e-04d  [MaxClique] Merged 536 constraints with 1'174 literals into 522 constraints with 1'165 literals
  8.39e-04s  0.00e+00d  [DetectDominanceRelations] 
  3.05e-03s  0.00e+00d  [PresolveToFixPoint] #num_loops=1 #num_dual_strengthening=1 
  1.12e-03s  0.00e+00d  [ProcessAtMostOneAndLinear] #num_changes=1 
  1.04e-04s  0.00e+00d  [DetectDuplicateConstraints] 
  9.65e-05s  0.00e+00d  [DetectDuplicateConstraintsWithDifferentEnforcements] 
  6.97e-04s  5.40e-05d  [DetectDominatedLinearConstraints] #relevant_constraints=811 #num_inclusions=284 
  1.23e-04s  0.00e+00d  [DetectDifferentVariables] 
  7.42e-04s  7.26e-05d  [ProcessSetPPC] #relevant_constraints=3'079 #num_inclusions=98 
  2.81e-04s  3.40e-05d  [TransformClausesToExactlyOne] #num_amos=522 #num_clauses=1'694 #num_checked=1'694 
  1.47e-04s  0.00e+00d  [DetectEncodedComplexDomains] 
  3.89e-05s  2.90e-07d  [FindAlmostIdenticalLinearConstraints] #num_tested_pairs=3 
  8.23e-04s  1.13e-03d  [FindBigAtMostOneAndLinearOverlap] 
  1.05e-03s  8.97e-04d  [FindBigVerticalLinearOverlap] 
  3.51e-04s  5.64e-04d  [FindBigHorizontalLinearOverlap] #linears=461 
  3.99e-04s  2.66e-05d  [MergeClauses] #num_collisions=75 #num_merges=75 #num_saved_literals=221 
  8.60e-04s  0.00e+00d  [DetectDominanceRelations] 
  3.09e-03s  0.00e+00d  [PresolveToFixPoint] #num_loops=1 #num_dual_strengthening=1 
  8.58e-04s  0.00e+00d  [DetectDominanceRelations] 
  3.06e-03s  0.00e+00d  [PresolveToFixPoint] #num_loops=1 #num_dual_strengthening=1 
  1.46e-04s  0.00e+00d  [DetectDuplicateColumns] 
  9.64e-05s  0.00e+00d  [DetectDuplicateConstraints] 
[Symmetry] Graph for symmetry has 4'341 nodes and 13'385 arcs.
[Symmetry] Symmetry computation done. time: 0.000958009 dtime: 0.00134397
[SAT presolve] num removable Booleans: 86 / 489
[SAT presolve] num trivial clauses: 0
[SAT presolve] [0s] clauses:2'168 literals:6'273 vars:465 one_side_vars:198 simple_definition:62 singleton_clauses:0
[SAT presolve] [0.000202498s] clauses:2'168 literals:6'273 vars:465 one_side_vars:198 simple_definition:62 singleton_clauses:0
[SAT presolve] [0.000265215s] clauses:2'168 literals:6'273 vars:465 one_side_vars:198 simple_definition:62 singleton_clauses:0
  1.54e-04s  0.00e+00d  [DetectDuplicateConstraintsWithDifferentEnforcements] 
  5.92e-03s  2.20e-03d  [Probe] #probed=1'324 #new_binary_clauses=875 
  4.74e-04s  4.22e-04d  [MaxClique] Merged 521 constraints with 1'151 literals into 520 constraints with 1'150 literals
  8.62e-04s  0.00e+00d  [DetectDominanceRelations] 
  3.17e-03s  0.00e+00d  [PresolveToFixPoint] #num_loops=1 #num_dual_strengthening=1 
  1.11e-03s  0.00e+00d  [ProcessAtMostOneAndLinear] 
  1.10e-04s  0.00e+00d  [DetectDuplicateConstraints] 
  1.04e-04s  0.00e+00d  [DetectDuplicateConstraintsWithDifferentEnforcements] 
  7.00e-04s  5.40e-05d  [DetectDominatedLinearConstraints] #relevant_constraints=811 #num_inclusions=284 
  1.27e-04s  0.00e+00d  [DetectDifferentVariables] 
  7.27e-04s  7.25e-05d  [ProcessSetPPC] #relevant_constraints=3'079 #num_inclusions=96 
  2.93e-04s  3.40e-05d  [TransformClausesToExactlyOne] #num_amos=520 #num_clauses=1'696 #num_checked=1'696 
  1.47e-04s  0.00e+00d  [DetectEncodedComplexDomains] 
  4.66e-05s  9.00e-08d  [FindAlmostIdenticalLinearConstraints] #num_tested_pairs=1 
  8.34e-04s  1.13e-03d  [FindBigAtMostOneAndLinearOverlap] 
  1.13e-03s  8.73e-04d  [FindBigVerticalLinearOverlap] #blocks=1 #saved_nz=34 
  3.33e-04s  5.34e-04d  [FindBigHorizontalLinearOverlap] #linears=459 
  3.52e-04s  2.66e-05d  [MergeClauses] #num_collisions=76 #num_merges=76 #num_saved_literals=223 
  9.00e-04s  0.00e+00d  [DetectDominanceRelations] 
  3.22e-03s  0.00e+00d  [PresolveToFixPoint] #num_loops=2 #num_dual_strengthening=1 
  2.99e-05s  0.00e+00d  [MergeNoOverlap] 
  3.15e-05s  0.00e+00d  [MergeNoOverlap2D] 

Presolve summary:
  - 37 affine relations were detected.
  - rule 'TODO dual: only one blocking constraint?' was applied 883 times.
  - rule 'TODO dual: tighten at most one' was applied 8 times.
  - rule 'TODO linear inclusion: superset is equality' was applied 141 times.
  - rule 'affine: new relation' was applied 37 times.
  - rule 'at_most_one: removed literals' was applied 61 times.
  - rule 'at_most_one: size one' was applied 60 times.
  - rule 'at_most_one: transformed into max clique' was applied 3 times.
  - rule 'bool_or: implications' was applied 74 times.
  - rule 'bool_or: only one literal' was applied 12 times.
  - rule 'bool_or: removed enforcement literal' was applied 605 times.
  - rule 'deductions: 896 stored' was applied 1 time.
  - rule 'duplicate: merged rhs of linear constraint' was applied 10 times.
  - rule 'duplicate: removed constraint' was applied 11 times.
  - rule 'duplicate: removed enforced constraint' was applied 2 times.
  - rule 'enforcement: false literal' was applied 33 times.
  - rule 'enforcement: true literal' was applied 8 times.
  - rule 'exactly_one: removed literals' was applied 32 times.
  - rule 'exactly_one: satisfied' was applied 3 times.
  - rule 'exactly_one: singleton' was applied 3 times.
  - rule 'exactly_one: size two' was applied 29 times.
  - rule 'exactly_one: x and not(x)' was applied 6 times.
  - rule 'incompatible linear: add implication' was applied 129 times.
  - rule 'linear + amo: empty after processing' was applied 6 times.
  - rule 'linear + amo: extracted enforcement literal' was applied 97 times.
  - rule 'linear + amo: fixed literal implied by enforcement' was applied 2 times.
  - rule 'linear inclusion: redundant containing constraint' was applied 3 times.
  - rule 'linear inclusion: redundant included constraint' was applied 3 times.
  - rule 'linear inclusion: sparsify superset' was applied 1 time.
  - rule 'linear matrix: common vertical rectangle' was applied 6 times.
  - rule 'linear1: x in domain' was applied 26 times.
  - rule 'linear2: convert ax + by != cte to clauses' was applied 262 times.
  - rule 'linear2: convert implied ax + by == cte to clauses' was applied 126 times.
  - rule 'linear2: implied ax + by = cte has only one solution' was applied 9 times.
  - rule 'linear: always true' was applied 418 times.
  - rule 'linear: coefficient strengthening by increasing it' was applied 2 times.
  - rule 'linear: empty' was applied 1 time.
  - rule 'linear: extracted at most one (max)' was applied 1 time.
  - rule 'linear: fixed or dup variables' was applied 879 times.
  - rule 'linear: negative clause' was applied 1'299 times.
  - rule 'linear: negative reified and' was applied 78 times.
  - rule 'linear: never in domain' was applied 6 times.
  - rule 'linear: positive at most one' was applied 34 times.
  - rule 'linear: reduced variable domains' was applied 7 times.
  - rule 'linear: remapped using affine relations' was applied 22 times.
  - rule 'new_bool: integer encoding' was applied 18 times.
  - rule 'presolve: 77 unused variables removed.' was applied 1 time.
  - rule 'presolve: iteration' was applied 3 times.
  - rule 'probing: bool_or reduced to implication' was applied 32 times.
  - rule 'probing: simplified clauses' was applied 16 times.
  - rule 'setppc: bool_or in at_most_one' was applied 7 times.
  - rule 'setppc: removed dominated constraints' was applied 88 times.
  - rule 'variables: add encoding constraint' was applied 18 times.

Presolved satisfaction model '': (model_fingerprint: 0x2b6ec34401446ad5)
#Variables: 498 (431 primary variables)
  - 492 Booleans in [0,1]
  - 6 in [0,2]
#kAtMostOne: 50 (#literals: 210)
#kBoolAnd: 284 (#enforced: 284) (#literals: 757)
#kBoolAndClauses: 76 (#enforced: 76 #multi: 76) (#literals: 375)
#kBoolOr: 1'552 (#literals: 4'755)
#kExactlyOne: 52 (#literals: 200)
#kLinear1: 36 (#enforced: 36)
#kLinearN: 809 (#enforced: 121 #multi: 1) (#terms: 5'631)
[Symmetry] Graph for symmetry has 4'112 nodes and 13'387 arcs.
[Symmetry] Symmetry computation done. time: 0.000816715 dtime: 0.00135293

Preloading model.
#Model   0.10s var:498/498 constraints:2859/2859

Starting search at 0.10s with 4 workers.
3 full problem subsolvers: [default_lp, max_lp, no_lp]
1 first solution subsolver: [fj]
2 interleaved subsolvers: [feasibility_pump, rins/rens]
2 helper subsolvers: [neighborhood_helper, synchronization_agent]

#Model  39.04s var:497/498 constraints:2857/2859
#Model  63.04s var:496/498 constraints:2843/2859
#Model 139.88s var:495/498 constraints:2841/2859
#Model 2554.25s var:494/498 constraints:2819/2859
#Model 3202.59s var:492/498 constraints:2796/2859
#Model 3374.10s var:491/498 constraints:2792/2859
#Model 3670.61s var:487/498 constraints:2750/2859
#Model 3671.21s var:486/498 constraints:2729/2859
#Model 3674.23s var:482/498 constraints:2659/2859
#Model 3674.61s var:481/498 constraints:2641/2859
#Model 3675.91s var:472/498 constraints:2525/2859
#Model 3676.40s var:458/498 constraints:2347/2859
#Model 3676.75s var:454/498 constraints:2306/2859
#Done  3676.88s no_lp

Task timing                   n [     min,      max]      avg      dev     time         n [     min,      max]      avg      dev    dtime
        'default_lp':         1 [   1.02h,    1.02h]    1.02h   0.00ns    1.02h         2 [  2.35ms,    1.04h]   31.08m   31.08m    1.04h
  'feasibility_pump':     18231 [803.60us, 117.89ms]   1.56ms 903.11us   28.49s     18230 [281.38us, 101.27ms] 289.71us 747.89us    5.28s
                'fj':     12880 [106.88ms, 249.90ms] 141.55ms   9.66ms   30.39m     12880 [ 62.45ms, 100.15ms] 100.01ms 331.25us   21.47m
            'max_lp':         1 [   1.02h,    1.02h]    1.02h   0.00ns    1.02h         2 [ 92.66ms,    1.26h]   37.89m   37.89m    1.26h
             'no_lp':         1 [   1.02h,    1.02h]    1.02h   0.00ns    1.02h         2 [  2.11ms,    2.19h]    1.10h    1.10h    2.19h
         'rins/rens':     16924 [670.54us, 249.92ms] 107.73ms  41.23ms   30.39m     16919 [126.57us, 100.30ms]  67.21ms  38.05ms   18.95m

Search stats     Bools   Conflicts    Branches  Restarts  BacktrackToRoot   Backtrack     BoolPropag  IntegerPropag
  'default_lp':    492     395'855   9'393'297     1'954        1'460'464   2'226'441    115'995'750    131'093'726
      'max_lp':    492     220'567  12'360'676       967        1'947'637   2'619'551    148'704'181    183'917'003
       'no_lp':    492  31'686'675  41'767'568   103'375          718'380  32'242'886  2'545'119'768    678'915'372

SAT formula      Fixed  Equiv  Total  VarLeft  BinaryClauses  PermanentClauses  TemporaryClauses
  'default_lp':     26      6    492      460          3'558            31'416             1'699
      'max_lp':     12      6    492      474          3'342            40'210             2'443
       'no_lp':    189      6    492      297          3'234            60'560             3'209

SAT stats        ClassicMinim   LitRemoved  LitRemovedBinary   LitLearned  LitForgotten   Subsumed
  'default_lp':       344'319    4'699'716         3'775'480   11'946'430     7'968'800    140'587
      'max_lp':       189'892    2'544'167         1'832'432    5'453'500     3'227'364     69'161
       'no_lp':    28'629'104  483'149'918       254'476'480  760'202'136   614'360'644  8'223'594

Vivification       Clauses   Decisions  LitTrue  Subsumed  LitRemoved  DecisionReused  Conflicts
  'default_lp':  1'470'228   8'541'767        7    27'652     303'806         421'574      3'395
      'max_lp':  1'943'939  11'634'900        0    29'306     326'531         505'184      3'503
       'no_lp':    506'217   4'250'968       17    35'439     471'215         113'870      2'346

Clause deletion    at_true  l_and_not(l)  to_binary  sub_conflict  sub_extra  sub_decisions  sub_eager  sub_vivify  sub_probing  sub_inpro  blocked  eliminated   forgotten    promoted   conflicts
    'default_lp':   19'903             1         88       137'810        962          3'899      2'777      27'652       20'438     40'993        0           0     210'366     780'533     395'855
        'max_lp':    6'504             1         17        68'235        530          1'300        926      29'306       26'823     38'795        0           0     108'319     442'705     220'567
         'no_lp':   74'605             4        113     8'074'670     50'894        318'454    148'924      35'439       48'568    193'816        0           0  22'688'723  71'750'558  31'686'675

Lp stats         Component  Iterations  AddedCuts  OPTIMAL  DUAL_F.  DUAL_U.
  'default_lp':          1  47'363'236    122'193  548'721        1  306'241
      'max_lp':          1  21'746'835    112'903   70'967  179'157   57'484

Lp dimension        Final dimension of first component
  'default_lp':    346 rows, 349 columns, 8881 entries
      'max_lp':  1308 rows, 498 columns, 21132 entries

Lp debug         CutPropag  CutEqPropag   Adjust  Overflow        Bad  BadScaling
  'default_lp':          0           23  306'225         0  3'833'767           0
      'max_lp':          0           50   57'476         0  3'680'596           0

Lp pool          Constraints  Updates  Simplif  Merged  Shortened  Split  Strengthened        Cuts/Call
  'default_lp':        9'961   21'768   16'510       0     16'527    534             0  122'193/153'514
      'max_lp':       13'090   33'193    8'756       7      8'881    970         3'222  112'903/173'060

Lp Cut            default_lp  max_lp
          CG_FF:       1'237     118
           CG_K:         666      12
          CG_KL:         635       9
           CG_R:       1'250      74
          CG_RB:          21       1
         CG_RBP:           1       -
         Clique:           -     544
             IB:         230      21
       MIR_1_FF:         761   1'086
        MIR_1_K:         124      28
       MIR_1_KL:         572      60
        MIR_1_R:         678     586
       MIR_1_RB:           -       3
      MIR_1_RLT:           -  15'398
       MIR_2_FF:       1'089   1'338
        MIR_2_K:         198     263
       MIR_2_KL:         545     151
        MIR_2_R:       1'081   1'302
       MIR_2_RB:           2       -
      MIR_2_RBP:           7       3
       MIR_3_FF:         512     386
        MIR_3_K:          61      59
       MIR_3_KL:         176      33
        MIR_3_R:         384     483
       MIR_3_RB:           2       1
      MIR_3_RBP:           2       -
       MIR_4_FF:         159     115
        MIR_4_K:          27      20
       MIR_4_KL:          47       4
        MIR_4_R:         186     396
       MIR_4_RB:           1       -
      MIR_4_RBP:           4       1
       MIR_5_FF:          48      48
        MIR_5_K:           5       8
       MIR_5_KL:          10       -
        MIR_5_R:          86     365
       MIR_5_RB:           1       1
      MIR_5_RBP:           4       -
       MIR_6_FF:          33      22
        MIR_6_K:           9       5
       MIR_6_KL:           3       1
        MIR_6_R:          78     396
      MIR_6_RBP:           1       -
   ZERO_HALF_FF:         480     714
    ZERO_HALF_K:         122      73
   ZERO_HALF_KL:         156      13
    ZERO_HALF_R:     110'457  88'651
   ZERO_HALF_RB:          20       7
  ZERO_HALF_RBP:          22     104

LNS stats       Improv/Calls  Closed  Difficulty  TimeLimit
  'rins/rens':   16921/16921     50%    7.81e-01       0.10

LS stats                                    Batches  Restarts/Perturbs    LinMoves    GenMoves  CompoundMoves  Bactracks  WeightUpdates  ScoreComputed
                             'fj_restart':      837                171  26'514'624           0              0          0     21'753'190     43'345'782
                    'fj_restart_compound':      466                153           0   5'362'843        373'939  2'494'128         11'346     86'814'455
                'fj_restart_compound_obj':    1'040                174           0  12'198'610        465'136  5'866'431         37'016    195'157'945
            'fj_restart_compound_perturb':      974                146           0  11'434'149        388'117  5'522'764         35'835    182'985'903
        'fj_restart_compound_perturb_obj':      797                181           0   9'418'750        494'308  4'461'867         22'675    149'243'973
                       'fj_restart_decay':      998                156  34'772'861           0              0          0      1'439'671     19'970'634
              'fj_restart_decay_compound':      679                179           0   8'648'983      1'418'321  3'614'823          9'386    128'332'900
          'fj_restart_decay_compound_obj':      852                168           0  11'079'426      1'811'946  4'633'278         11'602    161'624'148
      'fj_restart_decay_compound_perturb':    1'244                170           0  16'565'310      2'697'987  6'933'206         16'839    236'361'254
  'fj_restart_decay_compound_perturb_obj':      794                170           0  10'275'422      1'677'498  4'298'513         10'787    150'475'825
                   'fj_restart_decay_obj':      654                155  22'777'843           0              0          0        943'463     13'075'924
               'fj_restart_decay_perturb':      698                185  24'313'194           0              0          0      1'006'912     13'964'805
           'fj_restart_decay_perturb_obj':      992                179  34'566'927           0              0          0      1'431'606     19'811'094
                         'fj_restart_obj':      377                124  12'833'766           0              0          0      9'305'422     19'224'627
                     'fj_restart_perturb':      639                167  21'538'968           0              0          0     15'788'228     32'932'823
                 'fj_restart_perturb_obj':      839                151  27'967'560           0              0          0     20'567'488     44'611'561

Solution repositories    Added  Queried  Synchro
    'alternative_path':      0        0        0
      'best_solutions':      0        0        0
   'fj solution hints':  2'621        0    2'621
        'lp solutions':  2'360   16'924    2'359
                'pump':      0        0

Improving bounds shared    Num  Sym
            'default_lp':    5    0
                'max_lp':    7    0
                 'no_lp':   46    0

Clauses shared    #Exported  #Imported  #BinaryRead  #BinaryTotal
   'default_lp':      7'474    103'274        1'333         1'406
       'max_lp':      7'706    102'253          916         1'406
        'no_lp':     99'724     17'296        1'406         1'406

LRAT_status: NA
CpSolverResponse summary:
status: INFEASIBLE
objective: NA
best_bound: NA
integers: 361
booleans: 492
conflicts: 31686675
branches: 41767568
propagations: 2545119768
integer_propagations: 678915372
restarts: 103375
lp_iterations: 0
walltime: 3676.9
usertime: 3676.9
deterministic_time: 18601.2
gap_integral: 0

{
  "board_size": 22,
  "parity_proved": 0,
  "target": 34,
  "child_id": 742,
  "child_count": 2640,
  "partition": "unknown_pair_x_diag_plus_twos_x_diag_minus_twos",
  "build_seconds": 0.07955241203308105,
  "workers": 4,
  "requested_seed": 2026072942,
  "effective_seed": 2026072942,
  "main_diagonal_pair": [
    2,
    6
  ],
  "pair_index": 43,
  "diag_plus_twos": 16,
  "diag_minus_twos": 16,
  "pair_excess": 3,
  "residual_certificate_slack": 109,
  "analytic_minimum_line_defect": 24,
  "analytic_defect_details": {
    "row_costs": {
      "12": 6,
      "13": 3,
      "14": 0,
      "15": 0,
      "16": 0,
      "17": 0
    },
    "column_costs": {
      "12": 6,
      "13": 3,
      "14": 0,
      "15": 0,
      "16": 0,
      "17": 0
    },
    "plus_cost": 24,
    "minus_cost": 0,
    "row_column_minimum": 0
  },
  "maximal_line_constraints": 2455,
  "analytic_infeasible": false,
  "allowed_points": 242,
  "status": "INFEASIBLE",
  "proof_method": "cp_sat_all_lines_with_certificate_profile_cuts",
  "elapsed_seconds": 3676.903379678726,
  "branches": 41767568,
  "conflicts": 31686675
}
